c FILE: i080-001

c SOURCE: From steinlib

c DESCRIPTION: Steinlib instance with 80 nodes and 120 edges.

p edge 80 120
e 1 12
e 1 13
e 1 29
e 1 34
e 1 45
e 1 57
e 1 73
e 2 19
e 2 43
e 2 58
e 2 79
e 3 36
e 3 51
e 4 9
e 4 23
e 4 44
e 4 53
e 4 55
e 4 62
e 4 76
e 5 10
e 5 29
e 6 18
e 6 60
e 6 70
e 7 10
e 7 20
e 7 43
e 7 51
e 7 76
e 8 80
e 9 17
e 9 20
e 9 45
e 9 61
e 10 20
e 10 64
e 11 33
e 11 69
e 11 72
e 12 20
e 12 31
e 12 57
e 12 67
e 12 68
e 13 22
e 13 55
e 14 35
e 14 54
e 15 45
e 15 57
e 16 27
e 16 65
e 17 22
e 17 46
e 17 62
e 17 70
e 18 71
e 19 46
e 19 74
e 20 54
e 20 64
e 21 55
e 21 60
e 24 69
e 24 78
e 25 65
e 26 38
e 26 39
e 26 46
e 26 48
e 27 55
e 28 30
e 28 48
e 28 62
e 29 30
e 29 58
e 30 36
e 30 52
e 32 47
e 34 56
e 34 64
e 34 70
e 34 75
e 36 57
e 37 59
e 37 75
e 39 76
e 40 41
e 40 55
e 41 77
e 42 57
e 43 58
e 43 68
e 44 66
e 45 52
e 45 63
e 46 55
e 46 69
e 46 75
e 46 80
e 47 71
e 48 80
e 49 73
e 50 65
e 51 55
e 51 57
e 53 76
e 55 65
e 56 79
e 62 68
e 62 70
e 67 76
e 68 77
e 68 79
e 69 75
e 71 76
e 72 77
e 72 78
e 75 80
